(set-logic QF_LRA)
(declare-fun x0 () Real)
(declare-fun x1 () Real)
(declare-fun x2 () Real)
(declare-fun x3 () Real)
(declare-fun x4 () Real)
(declare-fun x5 () Real)
(declare-fun x6 () Real)
(declare-fun x7 () Real)
(declare-fun x8 () Real)
(declare-fun x9 () Real)
(assert (let ((.def_0 (* 1950414245291689.0 x2))) (let ((.def_1 (* (- 4036407968220315.0) x6))) (let ((.def_2 (+ .def_1 .def_0))) (let ((.def_3 (* 4208802008748587.0 x9))) (let ((.def_4 (+ .def_3 .def_2))) (let ((.def_5 (* (- 2986800263796319.0) x7))) (let ((.def_6 (+ .def_5 .def_4))) (let ((.def_7 (* (- 2680348619064836.0) x1))) (let ((.def_8 (+ .def_7 .def_6))) (let ((.def_9 (* 1505232038581193.0 x3))) (let ((.def_10 (+ .def_9 .def_8))) (let ((.def_11 (<= .def_10 5973863074294072.0))) (let ((.def_12 (* 4314891796751192.0 x2))) (let ((.def_13 (* (- 2910473808135292.0) x6))) (let ((.def_14 (+ .def_13 .def_12))) (let ((.def_15 (* (- 3066124778095539.0) x7))) (let ((.def_16 (+ .def_15 .def_14))) (let ((.def_17 (* (- 3751981397443736.0) x0))) (let ((.def_18 (+ .def_17 .def_16))) (let ((.def_19 (* 2320766429678742.0 x8))) (let ((.def_20 (+ .def_19 .def_18))) (let ((.def_21 (* 232008652426846.0 x1))) (let ((.def_22 (+ .def_21 .def_20))) (let ((.def_23 (* 3641536000800525.0 x4))) (let ((.def_24 (+ .def_23 .def_22))) (let ((.def_25 (* 2656521000331193.0 x3))) (let ((.def_26 (+ .def_25 .def_24))) (let ((.def_27 (<= .def_26 (- 6631868499810280.0)))) (let ((.def_28 (not .def_27))) (let ((.def_29 (or .def_28 .def_11))) (let ((.def_30 (<= x9 1.0))) (let ((.def_31 (not .def_30))) (let ((.def_32 (or .def_31 .def_29))) (let ((.def_33 (<= 0.0 x8))) (let ((.def_34 (not .def_33))) (let ((.def_35 (or .def_34 .def_32))) (let ((.def_36 (<= 0.0 x7))) (let ((.def_37 (not .def_36))) (let ((.def_38 (or .def_37 .def_35))) (let ((.def_39 (<= 0.0 x6))) (let ((.def_40 (not .def_39))) (let ((.def_41 (or .def_40 .def_38))) (let ((.def_42 (<= 0.0 x4))) (let ((.def_43 (not .def_42))) (let ((.def_44 (or .def_43 .def_41))) (let ((.def_45 (<= x3 1.0))) (let ((.def_46 (not .def_45))) (let ((.def_47 (or .def_46 .def_44))) (let ((.def_48 (<= 0.0 x1))) (let ((.def_49 (not .def_48))) (let ((.def_50 (or .def_49 .def_47))) (let ((.def_51 (<= x0 1.0))) (let ((.def_52 (not .def_51))) (let ((.def_53 (or .def_52 .def_50))) (let ((.def_54 (<= x4 1.0))) (let ((.def_55 (not .def_54))) (let ((.def_56 (<= x5 1.0))) (let ((.def_57 (not .def_56))) (let ((.def_58 (<= x6 1.0))) (let ((.def_59 (not .def_58))) (let ((.def_60 (<= x8 1.0))) (let ((.def_61 (not .def_60))) (let ((.def_62 (<= 0.0 x9))) (let ((.def_63 (not .def_62))) (let ((.def_64 (* (- 986491765058516.0) x2))) (let ((.def_65 (* 4140647333024197.0 x8))) (let ((.def_66 (+ .def_65 .def_64))) (let ((.def_67 (<= 4031471347567696.0 .def_66))) (let ((.def_68 (not .def_67))) (let ((.def_69 (* 3108882555848818.0 x2))) (let ((.def_70 (* 2702357526993475.0 x6))) (let ((.def_71 (+ .def_70 .def_69))) (let ((.def_72 (* (- 2258075766163771.0) x9))) (let ((.def_73 (+ .def_72 .def_71))) (let ((.def_74 (* (- 1064500579573216.0) x7))) (let ((.def_75 (+ .def_74 .def_73))) (let ((.def_76 (* 2829604246474502.0 x0))) (let ((.def_77 (+ .def_76 .def_75))) (let ((.def_78 (* (- 2063603408007257.0) x8))) (let ((.def_79 (+ .def_78 .def_77))) (let ((.def_80 (* (- 3549858263442768.0) x1))) (let ((.def_81 (+ .def_80 .def_79))) (let ((.def_82 (* 942448329829752.0 x4))) (let ((.def_83 (+ .def_82 .def_81))) (let ((.def_84 (* 1487339881979598.0 x5))) (let ((.def_85 (+ .def_84 .def_83))) (let ((.def_86 (* 519597529769916.0 x3))) (let ((.def_87 (+ .def_86 .def_85))) (let ((.def_88 (<= .def_87 8655864272545992.0))) (let ((.def_89 (or .def_88 .def_68))) (let ((.def_90 (or .def_89 .def_63))) (let ((.def_91 (or .def_90 .def_61))) (let ((.def_92 (or .def_91 .def_37))) (let ((.def_93 (or .def_92 .def_59))) (let ((.def_94 (or .def_93 .def_57))) (let ((.def_95 (or .def_94 .def_55))) (let ((.def_96 (or .def_95 .def_46))) (let ((.def_97 (or .def_96 .def_49))) (let ((.def_98 (or .def_97 .def_52))) (let ((.def_99 (or .def_68 .def_11))) (let ((.def_100 (or .def_99 .def_31))) (let ((.def_101 (or .def_61 .def_100))) (let ((.def_102 (or .def_37 .def_101))) (let ((.def_103 (or .def_102 .def_40))) (let ((.def_104 (or .def_46 .def_103))) (let ((.def_105 (or .def_49 .def_104))) (let ((.def_106 (<= x2 1.0))) (let ((.def_107 (not .def_106))) (let ((.def_108 (* 3685337395972665.0 x2))) (let ((.def_109 (* (- 3200026025595159.0) x9))) (let ((.def_110 (+ .def_109 .def_108))) (let ((.def_111 (* (- 1545518385010791.0) x7))) (let ((.def_112 (+ .def_111 .def_110))) (let ((.def_113 (* 1776593784573500.0 x0))) (let ((.def_114 (+ .def_113 .def_112))) (let ((.def_115 (* 2694790729507116.0 x3))) (let ((.def_116 (+ .def_115 .def_114))) (let ((.def_117 (<= .def_116 17517262678673790.0))) (let ((.def_118 (or .def_117 .def_63))) (let ((.def_119 (or .def_37 .def_118))) (let ((.def_120 (or .def_46 .def_119))) (let ((.def_121 (or .def_120 .def_107))) (let ((.def_122 (or .def_52 .def_121))) (let ((.def_123 (<= 0.0 x5))) (let ((.def_124 (not .def_123))) (let ((.def_125 (* 1977172240823359.0 x7))) (let ((.def_126 (* 2584265638637329.0 x5))) (let ((.def_127 (+ .def_126 .def_125))) (let ((.def_128 (<= .def_127 (- 7816490060125688.0)))) (let ((.def_129 (not .def_128))) (let ((.def_130 (or .def_129 .def_37))) (let ((.def_131 (or .def_130 .def_124))) (let ((.def_132 (or .def_88 .def_11))) (let ((.def_133 (or .def_31 .def_132))) (let ((.def_134 (or .def_34 .def_133))) (let ((.def_135 (or .def_37 .def_134))) (let ((.def_136 (or .def_57 .def_135))) (let ((.def_137 (or .def_55 .def_136))) (let ((.def_138 (or .def_46 .def_137))) (let ((.def_139 (or .def_107 .def_138))) (let ((.def_140 (or .def_49 .def_139))) (let ((.def_141 (or .def_52 .def_140))) (let ((.def_142 (<= 0.0 x3))) (let ((.def_143 (not .def_142))) (let ((.def_144 (<= x7 1.0))) (let ((.def_145 (not .def_144))) (let ((.def_146 (or .def_88 .def_28))) (let ((.def_147 (or .def_63 .def_146))) (let ((.def_148 (or .def_147 .def_34))) (let ((.def_149 (or .def_148 .def_145))) (let ((.def_150 (or .def_59 .def_149))) (let ((.def_151 (or .def_57 .def_150))) (let ((.def_152 (or .def_151 .def_43))) (let ((.def_153 (or .def_152 .def_143))) (let ((.def_154 (or .def_49 .def_153))) (let ((.def_155 (or .def_52 .def_154))) (let ((.def_156 (and .def_155 .def_141 .def_131 .def_122 .def_105 .def_98 .def_53))) .def_156))))))))))))))))))))))))))))))))))))))))))))))))))))))))))))))))))))))))))))))))))))))))))))))))))))))))))))))))))))))))))))))))))))))))))))))))))))))))))))))
(check-sat)
